
Gurobi 8.1.0 (win64, Python) logging started 06/13/19 20:38:12

Optimize a model with 112 rows, 104 columns and 242 nonzeros
Variable types: 48 continuous, 56 integer (32 binary)
Coefficient statistics:
  Matrix range     [1e+00, 1e+03]
  Objective range  [0e+00, 0e+00]
  Bounds range     [1e+00, 1e+02]
  RHS range        [1e+00, 1e+02]
Found heuristic solution: objective 0.0000000

Explored 0 nodes (0 simplex iterations) in 0.01 seconds
Thread count was 1 (of 8 available processors)

Solution count 1: 0 

Optimal solution found (tolerance 1.00e-04)
Best objective 0.000000000000e+00, best bound 0.000000000000e+00, gap 0.0000%
Optimize a model with 112 rows, 104 columns and 242 nonzeros
Variable types: 48 continuous, 56 integer (32 binary)
Coefficient statistics:
  Matrix range     [5e-01, 1e+03]
  Objective range  [1e+00, 1e+00]
  Bounds range     [1e+00, 1e+02]
  RHS range        [1e+00, 1e+02]
Found heuristic solution: objective 14.0000000
Presolve removed 80 rows and 80 columns
Presolve time: 0.01s
Presolved: 32 rows, 24 columns, 96 nonzeros
Variable types: 0 continuous, 24 integer (16 binary)

Explored 0 nodes (0 simplex iterations) in 0.02 seconds
Thread count was 8 (of 8 available processors)

Solution count 1: 14 

Optimal solution found (tolerance 1.00e-04)
Best objective 1.400000000000e+01, best bound 1.400000000000e+01, gap 0.0000%
Optimize a model with 112 rows, 104 columns and 256 nonzeros
Variable types: 48 continuous, 56 integer (32 binary)
Coefficient statistics:
  Matrix range     [5e-01, 1e+03]
  Objective range  [1e+00, 1e+00]
  Bounds range     [1e+00, 1e+02]
  RHS range        [1e+00, 1e+02]
Found heuristic solution: objective 86.0000000
Presolve removed 80 rows and 80 columns
Presolve time: 0.00s
Presolved: 32 rows, 24 columns, 96 nonzeros
Variable types: 0 continuous, 24 integer (16 binary)

Root relaxation: objective 3.300000e+01, 10 iterations, 0.01 seconds

    Nodes    |    Current Node    |     Objective Bounds      |     Work
 Expl Unexpl |  Obj  Depth IntInf | Incumbent    BestBd   Gap | It/Node Time

     0     0   33.00000    0    8   86.00000   33.00000  61.6%     -    0s
H    0     0                      68.0000000   33.00000  51.5%     -    0s
     0     0   59.00000    0   10   68.00000   59.00000  13.2%     -    0s
     0     0   59.00000    0    5   68.00000   59.00000  13.2%     -    0s
     0     0   59.00000    0    2   68.00000   59.00000  13.2%     -    0s
     0     0   59.00000    0    4   68.00000   59.00000  13.2%     -    0s
     0     0   59.00000    0   10   68.00000   59.00000  13.2%     -    0s
     0     0   66.00000    0   11   68.00000   66.00000  2.94%     -    0s
     0     0   66.00000    0    9   68.00000   66.00000  2.94%     -    0s
     0     2   66.00000    0    8   68.00000   66.00000  2.94%     -    0s

Cutting planes:
  Cover: 1
  Implied bound: 2
  Clique: 1
  MIR: 15

Explored 51 nodes (377 simplex iterations) in 0.06 seconds
Thread count was 8 (of 8 available processors)

Solution count 2: 68 86 

Optimal solution found (tolerance 1.00e-04)
Best objective 6.800000000000e+01, best bound 6.800000000000e+01, gap 0.0000%
Optimize a model with 112 rows, 104 columns and 254 nonzeros
Variable types: 48 continuous, 56 integer (32 binary)
Coefficient statistics:
  Matrix range     [5e-01, 1e+03]
  Objective range  [1e+00, 2e+00]
  Bounds range     [1e+00, 1e+02]
  RHS range        [1e+00, 9e+01]
Found heuristic solution: objective 102.0000000
Presolve removed 80 rows and 80 columns
Presolve time: 0.00s
Presolved: 32 rows, 24 columns, 96 nonzeros
Variable types: 0 continuous, 24 integer (16 binary)

Root relaxation: objective 1.900000e+01, 14 iterations, 0.00 seconds

    Nodes    |    Current Node    |     Objective Bounds      |     Work
 Expl Unexpl |  Obj  Depth IntInf | Incumbent    BestBd   Gap | It/Node Time

     0     0   19.00000    0   10  102.00000   19.00000  81.4%     -    0s
H    0     0                      72.0000000   19.00000  73.6%     -    0s
H    0     0                      66.0000000   19.00000  71.2%     -    0s
H    0     0                      63.0000000   19.00000  69.8%     -    0s
     0     0   43.49383    0   16   63.00000   43.49383  31.0%     -    0s
     0     0   44.00000    0   17   63.00000   44.00000  30.2%     -    0s
     0     0   58.00000    0   13   63.00000   58.00000  7.94%     -    0s
     0     0   58.00000    0   13   63.00000   58.00000  7.94%     -    0s
     0     0   58.00000    0   12   63.00000   58.00000  7.94%     -    0s
     0     0   58.00000    0   12   63.00000   58.00000  7.94%     -    0s
     0     0   58.00000    0   11   63.00000   58.00000  7.94%     -    0s
     0     2   58.00000    0   11   63.00000   58.00000  7.94%     -    0s

Cutting planes:
  Gomory: 1
  Implied bound: 1
  MIR: 9

Explored 27 nodes (225 simplex iterations) in 0.04 seconds
Thread count was 8 (of 8 available processors)

Solution count 4: 63 66 72 102 

Optimal solution found (tolerance 1.00e-04)
Best objective 6.300000000000e+01, best bound 6.300000000000e+01, gap 0.0000%
Optimize a model with 112 rows, 104 columns and 256 nonzeros
Variable types: 48 continuous, 56 integer (32 binary)
Coefficient statistics:
  Matrix range     [5e-01, 1e+03]
  Objective range  [1e+00, 3e+00]
  Bounds range     [1e+00, 1e+02]
  RHS range        [1e+00, 1e+02]
Found heuristic solution: objective 138.0000000
Presolve removed 80 rows and 80 columns
Presolve time: 0.00s
Presolved: 32 rows, 24 columns, 96 nonzeros
Variable types: 0 continuous, 24 integer (16 binary)

Root relaxation: objective 3.100000e+01, 14 iterations, 0.00 seconds

    Nodes    |    Current Node    |     Objective Bounds      |     Work
 Expl Unexpl |  Obj  Depth IntInf | Incumbent    BestBd   Gap | It/Node Time

     0     0   31.00000    0   12  138.00000   31.00000  77.5%     -    0s
H    0     0                     135.0000000   31.00000  77.0%     -    0s
H    0     0                     117.0000000   31.00000  73.5%     -    0s
     0     0   72.31262    0   19  117.00000   72.31262  38.2%     -    0s
     0     0   72.32000    0   19  117.00000   72.32000  38.2%     -    0s
     0     0   83.00000    0   21  117.00000   83.00000  29.1%     -    0s
     0     0   88.00000    0   21  117.00000   88.00000  24.8%     -    0s
     0     0   90.00000    0   22  117.00000   90.00000  23.1%     -    0s
     0     0   91.00000    0   22  117.00000   91.00000  22.2%     -    0s
     0     0  116.00000    0   23  117.00000  116.00000  0.85%     -    0s
     0     0  116.00000    0   23  117.00000  116.00000  0.85%     -    0s
     0     2  116.00000    0   23  117.00000  116.00000  0.85%     -    0s

Cutting planes:
  Gomory: 1
  Implied bound: 8
  MIR: 25

Explored 116 nodes (878 simplex iterations) in 0.06 seconds
Thread count was 8 (of 8 available processors)

Solution count 3: 117 135 138 

Optimal solution found (tolerance 1.00e-04)
Best objective 1.170000000000e+02, best bound 1.170000000000e+02, gap 0.0000%
Optimize a model with 112 rows, 104 columns and 256 nonzeros
Variable types: 48 continuous, 56 integer (32 binary)
Coefficient statistics:
  Matrix range     [5e-01, 1e+03]
  Objective range  [1e+00, 4e+00]
  Bounds range     [1e+00, 1e+02]
  RHS range        [1e+00, 1e+02]
Found heuristic solution: objective 257.0000000
Presolve removed 80 rows and 80 columns
Presolve time: 0.00s
Presolved: 32 rows, 24 columns, 96 nonzeros
Variable types: 0 continuous, 24 integer (16 binary)

Root relaxation: objective 3.700000e+01, 13 iterations, 0.00 seconds

    Nodes    |    Current Node    |     Objective Bounds      |     Work
 Expl Unexpl |  Obj  Depth IntInf | Incumbent    BestBd   Gap | It/Node Time

     0     0   37.00000    0   13  257.00000   37.00000  85.6%     -    0s
H    0     0                     240.0000000   37.00000  84.6%     -    0s
H    0     0                     199.0000000   37.00000  81.4%     -    0s
H    0     0                     196.0000000   37.00000  81.1%     -    0s
     0     0  114.81573    0   21  196.00000  114.81573  41.4%     -    0s
H    0     0                     183.0000000  114.81573  37.3%     -    0s
     0     0  155.00000    0   11  183.00000  155.00000  15.3%     -    0s
     0     0  161.00000    0   24  183.00000  161.00000  12.0%     -    0s
     0     0  162.00000    0   24  183.00000  162.00000  11.5%     -    0s
     0     0  170.00000    0   24  183.00000  170.00000  7.10%     -    0s
     0     0  180.00000    0   19  183.00000  180.00000  1.64%     -    0s
     0     0  180.00000    0   19  183.00000  180.00000  1.64%     -    0s
     0     2  180.00000    0   19  183.00000  180.00000  1.64%     -    0s

Cutting planes:
  Gomory: 2
  Implied bound: 3
  MIR: 30

Explored 115 nodes (748 simplex iterations) in 0.05 seconds
Thread count was 8 (of 8 available processors)

Solution count 5: 183 196 199 ... 257

Optimal solution found (tolerance 1.00e-04)
Best objective 1.830000000000e+02, best bound 1.830000000000e+02, gap 0.0000%
Optimize a model with 112 rows, 104 columns and 256 nonzeros
Variable types: 48 continuous, 56 integer (32 binary)
Coefficient statistics:
  Matrix range     [5e-01, 1e+03]
  Objective range  [1e+00, 4e+00]
  Bounds range     [1e+00, 1e+02]
  RHS range        [1e+00, 3e+01]
Found heuristic solution: objective 280.0000000
Presolve removed 80 rows and 80 columns
Presolve time: 0.00s
Presolved: 32 rows, 24 columns, 96 nonzeros
Variable types: 0 continuous, 24 integer (16 binary)

Root relaxation: objective 2.600000e+01, 16 iterations, 0.00 seconds

    Nodes    |    Current Node    |     Objective Bounds      |     Work
 Expl Unexpl |  Obj  Depth IntInf | Incumbent    BestBd   Gap | It/Node Time

     0     0   26.00000    0   16  280.00000   26.00000  90.7%     -    0s
H    0     0                     189.0000000   26.00000  86.2%     -    0s
H    0     0                     179.0000000   26.00000  85.5%     -    0s
     0     0   98.75728    0   23  179.00000   98.75728  44.8%     -    0s
H    0     0                     173.0000000   98.75728  42.9%     -    0s
     0     0  100.03523    0   24  173.00000  100.03523  42.2%     -    0s
     0     0  100.23015    0   24  173.00000  100.23015  42.1%     -    0s
     0     0  116.00000    0   19  173.00000  116.00000  32.9%     -    0s
     0     0  128.00000    0   19  173.00000  128.00000  26.0%     -    0s
     0     0  133.00000    0   24  173.00000  133.00000  23.1%     -    0s
     0     0  134.00000    0   24  173.00000  134.00000  22.5%     -    0s
     0     0  135.00000    0   24  173.00000  135.00000  22.0%     -    0s
     0     0  146.00000    0   23  173.00000  146.00000  15.6%     -    0s
     0     0  146.00000    0   22  173.00000  146.00000  15.6%     -    0s
     0     2  146.00000    0   21  173.00000  146.00000  15.6%     -    0s

Cutting planes:
  Gomory: 5
  Implied bound: 4
  MIR: 26

Explored 111 nodes (787 simplex iterations) in 0.06 seconds
Thread count was 8 (of 8 available processors)

Solution count 4: 173 179 189 280 

Optimal solution found (tolerance 1.00e-04)
Best objective 1.730000000000e+02, best bound 1.730000000000e+02, gap 0.0000%
Optimize a model with 112 rows, 104 columns and 256 nonzeros
Variable types: 48 continuous, 56 integer (32 binary)
Coefficient statistics:
  Matrix range     [5e-01, 1e+03]
  Objective range  [1e+00, 6e+00]
  Bounds range     [1e+00, 1e+02]
  RHS range        [1e+00, 2e+01]
Found heuristic solution: objective 542.0000000
Presolve removed 80 rows and 80 columns
Presolve time: 0.00s
Presolved: 32 rows, 24 columns, 96 nonzeros
Variable types: 0 continuous, 24 integer (16 binary)

Root relaxation: objective 3.000000e+01, 16 iterations, 0.00 seconds

    Nodes    |    Current Node    |     Objective Bounds      |     Work
 Expl Unexpl |  Obj  Depth IntInf | Incumbent    BestBd   Gap | It/Node Time

     0     0   30.00000    0   16  542.00000   30.00000  94.5%     -    0s
H    0     0                     460.0000000   30.00000  93.5%     -    0s
H    0     0                     443.0000000   30.00000  93.2%     -    0s
H    0     0                     429.0000000   30.00000  93.0%     -    0s
H    0     0                     423.0000000   30.00000  92.9%     -    0s
H    0     0                     413.0000000   78.00000  81.1%     -    0s
     0     0  218.21053    0   17  413.00000  218.21053  47.2%     -    0s
     0     0  218.21053    0   16  413.00000  218.21053  47.2%     -    0s
H    0     0                     405.0000000  218.21053  46.1%     -    0s
     0     0  230.25939    0   23  405.00000  230.25939  43.1%     -    0s
     0     0  230.37777    0   24  405.00000  230.37777  43.1%     -    0s
     0     0  242.00000    0   22  405.00000  242.00000  40.2%     -    0s
     0     0  244.00000    0   22  405.00000  244.00000  39.8%     -    0s
H    0     0                     401.0000000  244.00000  39.2%     -    0s
     0     2  244.00000    0   22  401.00000  244.00000  39.2%     -    0s

Cutting planes:
  Gomory: 3
  Implied bound: 6
  MIR: 21

Explored 184 nodes (1080 simplex iterations) in 0.05 seconds
Thread count was 8 (of 8 available processors)

Solution count 8: 401 405 413 ... 542

Optimal solution found (tolerance 1.00e-04)
Best objective 4.010000000000e+02, best bound 4.010000000000e+02, gap 0.0000%
Optimize a model with 112 rows, 104 columns and 254 nonzeros
Variable types: 48 continuous, 56 integer (32 binary)
Coefficient statistics:
  Matrix range     [5e-01, 1e+03]
  Objective range  [1e+00, 1e+01]
  Bounds range     [1e+00, 1e+02]
  RHS range        [1e+00, 3e+01]
Found heuristic solution: objective 798.0000000
Presolve removed 80 rows and 80 columns
Presolve time: 0.00s
Presolved: 32 rows, 24 columns, 96 nonzeros
Variable types: 0 continuous, 24 integer (16 binary)

Root relaxation: objective 3.100000e+01, 16 iterations, 0.00 seconds

    Nodes    |    Current Node    |     Objective Bounds      |     Work
 Expl Unexpl |  Obj  Depth IntInf | Incumbent    BestBd   Gap | It/Node Time

     0     0   31.00000    0   12  798.00000   31.00000  96.1%     -    0s
H    0     0                     514.0000000   31.00000  94.0%     -    0s
     0     0  327.34722    0   14  514.00000  327.34722  36.3%     -    0s
H    0     0                     500.0000000  327.34722  34.5%     -    0s
     0     0  330.03758    0   16  500.00000  330.03758  34.0%     -    0s
     0     0  332.51026    0   14  500.00000  332.51026  33.5%     -    0s
     0     0  332.51026    0   14  500.00000  332.51026  33.5%     -    0s
     0     0  480.00000    0    3  500.00000  480.00000  4.00%     -    0s
     0     0  480.00000    0   16  500.00000  480.00000  4.00%     -    0s
     0     0  480.00000    0   16  500.00000  480.00000  4.00%     -    0s
     0     0  480.00000    0   16  500.00000  480.00000  4.00%     -    0s
     0     0  480.00000    0   16  500.00000  480.00000  4.00%     -    0s
     0     2  480.00000    0   16  500.00000  480.00000  4.00%     -    0s

Cutting planes:
  Gomory: 1
  Implied bound: 5
  MIR: 18

Explored 37 nodes (268 simplex iterations) in 0.04 seconds
Thread count was 8 (of 8 available processors)

Solution count 3: 500 514 798 

Optimal solution found (tolerance 1.00e-04)
Best objective 5.000000000000e+02, best bound 5.000000000000e+02, gap 0.0000%

Gurobi 8.1.0 (win64, Python) logging started 06/13/19 20:49:06

Optimize a model with 112 rows, 104 columns and 242 nonzeros
Variable types: 48 continuous, 56 integer (32 binary)
Coefficient statistics:
  Matrix range     [1e+00, 1e+03]
  Objective range  [0e+00, 0e+00]
  Bounds range     [1e+00, 1e+02]
  RHS range        [1e+00, 1e+02]
Found heuristic solution: objective 0.0000000

Explored 0 nodes (0 simplex iterations) in 0.00 seconds
Thread count was 1 (of 8 available processors)

Solution count 1: 0 

Optimal solution found (tolerance 1.00e-04)
Best objective 0.000000000000e+00, best bound 0.000000000000e+00, gap 0.0000%
Optimize a model with 112 rows, 104 columns and 242 nonzeros
Variable types: 48 continuous, 56 integer (32 binary)
Coefficient statistics:
  Matrix range     [5e-01, 1e+03]
  Objective range  [1e+00, 1e+00]
  Bounds range     [1e+00, 1e+02]
  RHS range        [1e+00, 1e+02]
Found heuristic solution: objective 14.0000000
Presolve removed 80 rows and 80 columns
Presolve time: 0.00s
Presolved: 32 rows, 24 columns, 96 nonzeros
Variable types: 0 continuous, 24 integer (16 binary)

Explored 0 nodes (0 simplex iterations) in 0.00 seconds
Thread count was 8 (of 8 available processors)

Solution count 1: 14 

Optimal solution found (tolerance 1.00e-04)
Best objective 1.400000000000e+01, best bound 1.400000000000e+01, gap 0.0000%
Optimize a model with 112 rows, 104 columns and 256 nonzeros
Variable types: 48 continuous, 56 integer (32 binary)
Coefficient statistics:
  Matrix range     [5e-01, 1e+03]
  Objective range  [1e+00, 1e+00]
  Bounds range     [1e+00, 1e+02]
  RHS range        [1e+00, 1e+02]
Found heuristic solution: objective 86.0000000
Presolve removed 80 rows and 80 columns
Presolve time: 0.00s
Presolved: 32 rows, 24 columns, 96 nonzeros
Variable types: 0 continuous, 24 integer (16 binary)

Root relaxation: objective 3.300000e+01, 10 iterations, 0.00 seconds

    Nodes    |    Current Node    |     Objective Bounds      |     Work
 Expl Unexpl |  Obj  Depth IntInf | Incumbent    BestBd   Gap | It/Node Time

     0     0   33.00000    0    8   86.00000   33.00000  61.6%     -    0s
H    0     0                      68.0000000   33.00000  51.5%     -    0s
     0     0   59.00000    0   10   68.00000   59.00000  13.2%     -    0s
     0     0   59.00000    0    5   68.00000   59.00000  13.2%     -    0s
     0     0   59.00000    0    2   68.00000   59.00000  13.2%     -    0s
     0     0   59.00000    0    4   68.00000   59.00000  13.2%     -    0s
     0     0   59.00000    0   10   68.00000   59.00000  13.2%     -    0s
     0     0   66.00000    0   11   68.00000   66.00000  2.94%     -    0s
     0     0   66.00000    0    9   68.00000   66.00000  2.94%     -    0s
     0     2   66.00000    0    8   68.00000   66.00000  2.94%     -    0s

Cutting planes:
  Cover: 1
  Implied bound: 2
  Clique: 1
  MIR: 15

Explored 51 nodes (377 simplex iterations) in 0.05 seconds
Thread count was 8 (of 8 available processors)

Solution count 2: 68 86 

Optimal solution found (tolerance 1.00e-04)
Best objective 6.800000000000e+01, best bound 6.800000000000e+01, gap 0.0000%
Optimize a model with 112 rows, 104 columns and 254 nonzeros
Variable types: 48 continuous, 56 integer (32 binary)
Coefficient statistics:
  Matrix range     [5e-01, 1e+03]
  Objective range  [1e+00, 2e+00]
  Bounds range     [1e+00, 1e+02]
  RHS range        [1e+00, 9e+01]
Found heuristic solution: objective 102.0000000
Presolve removed 80 rows and 80 columns
Presolve time: 0.00s
Presolved: 32 rows, 24 columns, 96 nonzeros
Variable types: 0 continuous, 24 integer (16 binary)

Root relaxation: objective 1.900000e+01, 14 iterations, 0.00 seconds

    Nodes    |    Current Node    |     Objective Bounds      |     Work
 Expl Unexpl |  Obj  Depth IntInf | Incumbent    BestBd   Gap | It/Node Time

     0     0   19.00000    0   10  102.00000   19.00000  81.4%     -    0s
H    0     0                      72.0000000   19.00000  73.6%     -    0s
H    0     0                      66.0000000   19.00000  71.2%     -    0s
H    0     0                      63.0000000   19.00000  69.8%     -    0s
     0     0   43.49383    0   16   63.00000   43.49383  31.0%     -    0s
     0     0   44.00000    0   17   63.00000   44.00000  30.2%     -    0s
     0     0   58.00000    0   13   63.00000   58.00000  7.94%     -    0s
     0     0   58.00000    0   13   63.00000   58.00000  7.94%     -    0s
     0     0   58.00000    0   12   63.00000   58.00000  7.94%     -    0s
     0     0   58.00000    0   12   63.00000   58.00000  7.94%     -    0s
     0     0   58.00000    0   11   63.00000   58.00000  7.94%     -    0s
     0     2   58.00000    0   11   63.00000   58.00000  7.94%     -    0s

Cutting planes:
  Gomory: 1
  Implied bound: 1
  MIR: 9

Explored 27 nodes (225 simplex iterations) in 0.04 seconds
Thread count was 8 (of 8 available processors)

Solution count 4: 63 66 72 102 

Optimal solution found (tolerance 1.00e-04)
Best objective 6.300000000000e+01, best bound 6.300000000000e+01, gap 0.0000%

Gurobi 8.1.0 (win64, Python) logging started 06/13/19 20:51:32

Optimize a model with 112 rows, 104 columns and 242 nonzeros
Variable types: 48 continuous, 56 integer (32 binary)
Coefficient statistics:
  Matrix range     [1e+00, 1e+03]
  Objective range  [0e+00, 0e+00]
  Bounds range     [1e+00, 1e+02]
  RHS range        [1e+00, 1e+02]
Found heuristic solution: objective 0.0000000

Explored 0 nodes (0 simplex iterations) in 0.00 seconds
Thread count was 1 (of 8 available processors)

Solution count 1: 0 

Optimal solution found (tolerance 1.00e-04)
Best objective 0.000000000000e+00, best bound 0.000000000000e+00, gap 0.0000%
Optimize a model with 112 rows, 104 columns and 242 nonzeros
Variable types: 48 continuous, 56 integer (32 binary)
Coefficient statistics:
  Matrix range     [5e-01, 1e+03]
  Objective range  [1e+00, 1e+00]
  Bounds range     [1e+00, 1e+02]
  RHS range        [1e+00, 1e+02]
Found heuristic solution: objective 14.0000000
Presolve removed 80 rows and 80 columns
Presolve time: 0.00s
Presolved: 32 rows, 24 columns, 96 nonzeros
Variable types: 0 continuous, 24 integer (16 binary)

Explored 0 nodes (0 simplex iterations) in 0.00 seconds
Thread count was 8 (of 8 available processors)

Solution count 1: 14 

Optimal solution found (tolerance 1.00e-04)
Best objective 1.400000000000e+01, best bound 1.400000000000e+01, gap 0.0000%
Optimize a model with 112 rows, 104 columns and 256 nonzeros
Variable types: 48 continuous, 56 integer (32 binary)
Coefficient statistics:
  Matrix range     [5e-01, 1e+03]
  Objective range  [1e+00, 1e+00]
  Bounds range     [1e+00, 1e+02]
  RHS range        [1e+00, 1e+02]
Found heuristic solution: objective 86.0000000
Presolve removed 80 rows and 80 columns
Presolve time: 0.00s
Presolved: 32 rows, 24 columns, 96 nonzeros
Variable types: 0 continuous, 24 integer (16 binary)

Root relaxation: objective 3.300000e+01, 10 iterations, 0.00 seconds

    Nodes    |    Current Node    |     Objective Bounds      |     Work
 Expl Unexpl |  Obj  Depth IntInf | Incumbent    BestBd   Gap | It/Node Time

     0     0   33.00000    0    8   86.00000   33.00000  61.6%     -    0s
H    0     0                      68.0000000   33.00000  51.5%     -    0s
     0     0   59.00000    0   10   68.00000   59.00000  13.2%     -    0s
     0     0   59.00000    0    5   68.00000   59.00000  13.2%     -    0s
     0     0   59.00000    0    2   68.00000   59.00000  13.2%     -    0s
     0     0   59.00000    0    4   68.00000   59.00000  13.2%     -    0s
     0     0   59.00000    0   10   68.00000   59.00000  13.2%     -    0s
     0     0   66.00000    0   11   68.00000   66.00000  2.94%     -    0s
     0     0   66.00000    0    9   68.00000   66.00000  2.94%     -    0s
     0     2   66.00000    0    8   68.00000   66.00000  2.94%     -    0s

Cutting planes:
  Cover: 1
  Implied bound: 2
  Clique: 1
  MIR: 15

Explored 51 nodes (377 simplex iterations) in 0.05 seconds
Thread count was 8 (of 8 available processors)

Solution count 2: 68 86 

Optimal solution found (tolerance 1.00e-04)
Best objective 6.800000000000e+01, best bound 6.800000000000e+01, gap 0.0000%
Optimize a model with 112 rows, 104 columns and 254 nonzeros
Variable types: 48 continuous, 56 integer (32 binary)
Coefficient statistics:
  Matrix range     [5e-01, 1e+03]
  Objective range  [1e+00, 2e+00]
  Bounds range     [1e+00, 1e+02]
  RHS range        [1e+00, 9e+01]
Found heuristic solution: objective 102.0000000
Presolve removed 80 rows and 80 columns
Presolve time: 0.00s
Presolved: 32 rows, 24 columns, 96 nonzeros
Variable types: 0 continuous, 24 integer (16 binary)

Root relaxation: objective 1.900000e+01, 14 iterations, 0.00 seconds

    Nodes    |    Current Node    |     Objective Bounds      |     Work
 Expl Unexpl |  Obj  Depth IntInf | Incumbent    BestBd   Gap | It/Node Time

     0     0   19.00000    0   10  102.00000   19.00000  81.4%     -    0s
H    0     0                      72.0000000   19.00000  73.6%     -    0s
H    0     0                      66.0000000   19.00000  71.2%     -    0s
H    0     0                      63.0000000   19.00000  69.8%     -    0s
     0     0   43.49383    0   16   63.00000   43.49383  31.0%     -    0s
     0     0   44.00000    0   17   63.00000   44.00000  30.2%     -    0s
     0     0   58.00000    0   13   63.00000   58.00000  7.94%     -    0s
     0     0   58.00000    0   13   63.00000   58.00000  7.94%     -    0s
     0     0   58.00000    0   12   63.00000   58.00000  7.94%     -    0s
     0     0   58.00000    0   12   63.00000   58.00000  7.94%     -    0s
     0     0   58.00000    0   11   63.00000   58.00000  7.94%     -    0s
     0     2   58.00000    0   11   63.00000   58.00000  7.94%     -    0s

Cutting planes:
  Gomory: 1
  Implied bound: 1
  MIR: 9

Explored 27 nodes (225 simplex iterations) in 0.06 seconds
Thread count was 8 (of 8 available processors)

Solution count 4: 63 66 72 102 

Optimal solution found (tolerance 1.00e-04)
Best objective 6.300000000000e+01, best bound 6.300000000000e+01, gap 0.0000%

Gurobi 8.1.0 (win64, Python) logging started 07/21/19 22:17:07

Optimize a model with 112 rows, 104 columns and 242 nonzeros
Variable types: 48 continuous, 56 integer (32 binary)
Coefficient statistics:
  Matrix range     [1e+00, 1e+03]
  Objective range  [0e+00, 0e+00]
  Bounds range     [1e+00, 1e+02]
  RHS range        [1e+00, 1e+02]
Found heuristic solution: objective 0.0000000

Explored 0 nodes (0 simplex iterations) in 0.00 seconds
Thread count was 1 (of 8 available processors)

Solution count 1: 0 

Optimal solution found (tolerance 1.00e-04)
Best objective 0.000000000000e+00, best bound 0.000000000000e+00, gap 0.0000%
Optimize a model with 112 rows, 104 columns and 242 nonzeros
Variable types: 48 continuous, 56 integer (32 binary)
Coefficient statistics:
  Matrix range     [5e-01, 1e+03]
  Objective range  [1e+00, 1e+00]
  Bounds range     [1e+00, 1e+02]
  RHS range        [1e+00, 1e+02]
Found heuristic solution: objective 14.0000000
Presolve removed 80 rows and 80 columns
Presolve time: 0.02s
Presolved: 32 rows, 24 columns, 96 nonzeros
Variable types: 0 continuous, 24 integer (16 binary)

Explored 0 nodes (0 simplex iterations) in 0.02 seconds
Thread count was 8 (of 8 available processors)

Solution count 1: 14 

Optimal solution found (tolerance 1.00e-04)
Best objective 1.400000000000e+01, best bound 1.400000000000e+01, gap 0.0000%
Optimize a model with 112 rows, 104 columns and 256 nonzeros
Variable types: 48 continuous, 56 integer (32 binary)
Coefficient statistics:
  Matrix range     [5e-01, 1e+03]
  Objective range  [1e+00, 1e+00]
  Bounds range     [1e+00, 1e+02]
  RHS range        [1e+00, 1e+02]
Found heuristic solution: objective 86.0000000
Presolve removed 80 rows and 80 columns
Presolve time: 0.00s
Presolved: 32 rows, 24 columns, 96 nonzeros
Variable types: 0 continuous, 24 integer (16 binary)

Root relaxation: objective 3.300000e+01, 10 iterations, 0.00 seconds

    Nodes    |    Current Node    |     Objective Bounds      |     Work
 Expl Unexpl |  Obj  Depth IntInf | Incumbent    BestBd   Gap | It/Node Time

     0     0   33.00000    0    8   86.00000   33.00000  61.6%     -    0s
H    0     0                      68.0000000   33.00000  51.5%     -    0s
     0     0   59.00000    0   10   68.00000   59.00000  13.2%     -    0s
     0     0   59.00000    0    5   68.00000   59.00000  13.2%     -    0s
     0     0   59.00000    0    2   68.00000   59.00000  13.2%     -    0s
     0     0   59.00000    0    4   68.00000   59.00000  13.2%     -    0s
     0     0   59.00000    0   10   68.00000   59.00000  13.2%     -    0s
     0     0   66.00000    0   11   68.00000   66.00000  2.94%     -    0s
     0     0   66.00000    0    9   68.00000   66.00000  2.94%     -    0s
     0     2   66.00000    0    8   68.00000   66.00000  2.94%     -    0s

Cutting planes:
  Cover: 1
  Implied bound: 2
  Clique: 1
  MIR: 15

Explored 51 nodes (377 simplex iterations) in 0.06 seconds
Thread count was 8 (of 8 available processors)

Solution count 2: 68 86 

Optimal solution found (tolerance 1.00e-04)
Best objective 6.800000000000e+01, best bound 6.800000000000e+01, gap 0.0000%
Optimize a model with 112 rows, 104 columns and 254 nonzeros
Variable types: 48 continuous, 56 integer (32 binary)
Coefficient statistics:
  Matrix range     [5e-01, 1e+03]
  Objective range  [1e+00, 2e+00]
  Bounds range     [1e+00, 1e+02]
  RHS range        [1e+00, 9e+01]
Found heuristic solution: objective 102.0000000
Presolve removed 80 rows and 80 columns
Presolve time: 0.00s
Presolved: 32 rows, 24 columns, 96 nonzeros
Variable types: 0 continuous, 24 integer (16 binary)

Root relaxation: objective 1.900000e+01, 14 iterations, 0.00 seconds

    Nodes    |    Current Node    |     Objective Bounds      |     Work
 Expl Unexpl |  Obj  Depth IntInf | Incumbent    BestBd   Gap | It/Node Time

     0     0   19.00000    0   10  102.00000   19.00000  81.4%     -    0s
H    0     0                      72.0000000   19.00000  73.6%     -    0s
H    0     0                      66.0000000   19.00000  71.2%     -    0s
H    0     0                      63.0000000   19.00000  69.8%     -    0s
     0     0   43.49383    0   16   63.00000   43.49383  31.0%     -    0s
     0     0   44.00000    0   17   63.00000   44.00000  30.2%     -    0s
     0     0   58.00000    0   13   63.00000   58.00000  7.94%     -    0s
     0     0   58.00000    0   13   63.00000   58.00000  7.94%     -    0s
     0     0   58.00000    0   12   63.00000   58.00000  7.94%     -    0s
     0     0   58.00000    0   12   63.00000   58.00000  7.94%     -    0s
     0     0   58.00000    0   11   63.00000   58.00000  7.94%     -    0s
     0     2   58.00000    0   11   63.00000   58.00000  7.94%     -    0s

Cutting planes:
  Gomory: 1
  Implied bound: 1
  MIR: 9

Explored 27 nodes (225 simplex iterations) in 0.03 seconds
Thread count was 8 (of 8 available processors)

Solution count 4: 63 66 72 102 

Optimal solution found (tolerance 1.00e-04)
Best objective 6.300000000000e+01, best bound 6.300000000000e+01, gap 0.0000%
Optimize a model with 112 rows, 104 columns and 256 nonzeros
Variable types: 48 continuous, 56 integer (32 binary)
Coefficient statistics:
  Matrix range     [5e-01, 1e+03]
  Objective range  [1e+00, 3e+00]
  Bounds range     [1e+00, 1e+02]
  RHS range        [1e+00, 1e+02]
Found heuristic solution: objective 138.0000000
Presolve removed 80 rows and 80 columns
Presolve time: 0.00s
Presolved: 32 rows, 24 columns, 96 nonzeros
Variable types: 0 continuous, 24 integer (16 binary)

Root relaxation: objective 3.100000e+01, 14 iterations, 0.00 seconds

    Nodes    |    Current Node    |     Objective Bounds      |     Work
 Expl Unexpl |  Obj  Depth IntInf | Incumbent    BestBd   Gap | It/Node Time

     0     0   31.00000    0   12  138.00000   31.00000  77.5%     -    0s
H    0     0                     135.0000000   31.00000  77.0%     -    0s
H    0     0                     117.0000000   31.00000  73.5%     -    0s
     0     0   72.31262    0   19  117.00000   72.31262  38.2%     -    0s
     0     0   72.32000    0   19  117.00000   72.32000  38.2%     -    0s
     0     0   83.00000    0   21  117.00000   83.00000  29.1%     -    0s
     0     0   88.00000    0   21  117.00000   88.00000  24.8%     -    0s
     0     0   90.00000    0   22  117.00000   90.00000  23.1%     -    0s
     0     0   91.00000    0   22  117.00000   91.00000  22.2%     -    0s
     0     0  116.00000    0   23  117.00000  116.00000  0.85%     -    0s
     0     0  116.00000    0   23  117.00000  116.00000  0.85%     -    0s
     0     2  116.00000    0   23  117.00000  116.00000  0.85%     -    0s

Cutting planes:
  Gomory: 1
  Implied bound: 8
  MIR: 25

Explored 116 nodes (878 simplex iterations) in 0.05 seconds
Thread count was 8 (of 8 available processors)

Solution count 3: 117 135 138 

Optimal solution found (tolerance 1.00e-04)
Best objective 1.170000000000e+02, best bound 1.170000000000e+02, gap 0.0000%

Gurobi 8.1.0 (win64, Python) logging started 07/23/19 18:01:20

Optimize a model with 112 rows, 104 columns and 242 nonzeros
Variable types: 48 continuous, 56 integer (32 binary)
Coefficient statistics:
  Matrix range     [1e+00, 1e+03]
  Objective range  [0e+00, 0e+00]
  Bounds range     [1e+00, 1e+02]
  RHS range        [1e+00, 1e+02]
Found heuristic solution: objective 0.0000000

Explored 0 nodes (0 simplex iterations) in 0.01 seconds
Thread count was 1 (of 8 available processors)

Solution count 1: 0 

Optimal solution found (tolerance 1.00e-04)
Best objective 0.000000000000e+00, best bound 0.000000000000e+00, gap 0.0000%
Optimize a model with 112 rows, 104 columns and 242 nonzeros
Variable types: 48 continuous, 56 integer (32 binary)
Coefficient statistics:
  Matrix range     [5e-01, 1e+03]
  Objective range  [1e+00, 1e+00]
  Bounds range     [1e+00, 1e+02]
  RHS range        [1e+00, 1e+02]
Found heuristic solution: objective 14.0000000
Presolve removed 80 rows and 80 columns
Presolve time: 0.02s
Presolved: 32 rows, 24 columns, 96 nonzeros
Variable types: 0 continuous, 24 integer (16 binary)

Explored 0 nodes (0 simplex iterations) in 0.03 seconds
Thread count was 8 (of 8 available processors)

Solution count 1: 14 

Optimal solution found (tolerance 1.00e-04)
Best objective 1.400000000000e+01, best bound 1.400000000000e+01, gap 0.0000%
Optimize a model with 112 rows, 104 columns and 256 nonzeros
Variable types: 48 continuous, 56 integer (32 binary)
Coefficient statistics:
  Matrix range     [5e-01, 1e+03]
  Objective range  [1e+00, 1e+00]
  Bounds range     [1e+00, 1e+02]
  RHS range        [1e+00, 1e+02]
Found heuristic solution: objective 86.0000000
Presolve removed 80 rows and 80 columns
Presolve time: 0.00s
Presolved: 32 rows, 24 columns, 96 nonzeros
Variable types: 0 continuous, 24 integer (16 binary)

Root relaxation: objective 3.300000e+01, 10 iterations, 0.01 seconds

    Nodes    |    Current Node    |     Objective Bounds      |     Work
 Expl Unexpl |  Obj  Depth IntInf | Incumbent    BestBd   Gap | It/Node Time

     0     0   33.00000    0    8   86.00000   33.00000  61.6%     -    0s
H    0     0                      68.0000000   33.00000  51.5%     -    0s
     0     0   59.00000    0   10   68.00000   59.00000  13.2%     -    0s
     0     0   59.00000    0    5   68.00000   59.00000  13.2%     -    0s
     0     0   59.00000    0    2   68.00000   59.00000  13.2%     -    0s
     0     0   59.00000    0    4   68.00000   59.00000  13.2%     -    0s
     0     0   59.00000    0   10   68.00000   59.00000  13.2%     -    0s
     0     0   66.00000    0   11   68.00000   66.00000  2.94%     -    0s
     0     0   66.00000    0    9   68.00000   66.00000  2.94%     -    0s
     0     2   66.00000    0    8   68.00000   66.00000  2.94%     -    0s

Cutting planes:
  Cover: 1
  Implied bound: 2
  Clique: 1
  MIR: 15

Explored 51 nodes (377 simplex iterations) in 0.06 seconds
Thread count was 8 (of 8 available processors)

Solution count 2: 68 86 

Optimal solution found (tolerance 1.00e-04)
Best objective 6.800000000000e+01, best bound 6.800000000000e+01, gap 0.0000%
